c read Graph
c width = 7
c time = 10 ms
c width = 1
c time = 24 ms
c width = 1
c time = 4926 ms
s td 171 2 217
b 1 1
b 2 2 83
b 3 178 179
b 4 2 178
b 5 3 110
b 6 180 181
b 7 4 180
b 8 4 216
b 9 5 194
b 10 6
b 11 7 208
b 12 8 127
b 13 8 92
b 14 9 67
b 15 9 175
b 16 102 103
b 17 9 102
b 18 10 101
b 19 11
b 20 12 51
b 21 12 195
b 22 13
b 23 202 203
b 24 14 203
b 25 15 96
b 26 16 97
b 27 17 187
b 28 17 123
b 29 17 130
b 30 18
b 31 19
b 32 20 145
b 33 20 172
b 34 21
b 35 22
b 36 160 161
b 37 23 161
b 38 24
b 39 106 107
b 40 25 106
b 41 54 55
b 42 25 54
b 43 26 162
b 44 27 166
b 45 27 113
b 46 28 167
b 47 80 81
b 48 29 81
b 49 30 56
b 50 210 211
b 51 30 211
b 52 31 95
b 53 32 86
b 54 70 71
b 55 32 71
b 56 39 91
b 57 39 193
b 58 192 193
b 59 32 192
b 60 33 163
b 61 33 132
b 62 34 61
b 63 35 89
b 64 36 196
b 65 36 213
b 66 37 156
b 67 37 149
b 68 152 153
b 69 38 152
b 70 40
b 71 41 63
b 72 41 68
b 73 42 64
b 74 42 171
b 75 182 183
b 76 42 183
b 77 43 197
b 78 44 151
b 79 45 139
b 80 46 184
b 81 46 109
b 82 47 135
b 83 47 185
b 84 48 73
b 85 49 65
b 86 49 159
b 87 50
b 88 52
b 89 53
b 90 57
b 91 58
b 92 59
b 93 60
b 94 62
b 95 66
b 96 69
b 97 72
b 98 74
b 99 75
b 100 76 77
b 101 78
b 102 79
b 103 82
b 104 84 85
b 105 87
b 106 88
b 107 90
b 108 93
b 109 94
b 110 98
b 111 99
b 112 100
b 113 104
b 114 105
b 115 108
b 116 111
b 117 112
b 118 114
b 119 115
b 120 116
b 121 117
b 122 118 119
b 123 120 121
b 124 122
b 125 124
b 126 125
b 127 126
b 128 128
b 129 129
b 130 131
b 131 133
b 132 134
b 133 136 137
b 134 138
b 135 140
b 136 141
b 137 142
b 138 143
b 139 144
b 140 146
b 141 147
b 142 148
b 143 150
b 144 154 155
b 145 157
b 146 158
b 147 164
b 148 165
b 149 168
b 150 169
b 151 170
b 152 173
b 153 174
b 154 176
b 155 177
b 156 186
b 157 188
b 158 189
b 159 190 191
b 160 198
b 161 199
b 162 200
b 163 201
b 164 204
b 165 205
b 166 206
b 167 207
b 168 209
b 169 212
b 170 214 215
b 171 217
1 2
1 5
1 6
1 9
1 10
1 11
1 12
1 14
1 18
1 19
1 20
1 22
1 23
1 25
1 26
1 27
1 30
1 31
1 32
1 34
1 35
1 36
1 38
1 39
1 43
1 44
1 46
1 47
1 49
1 52
1 53
1 60
1 62
1 63
1 64
1 66
1 68
1 70
1 71
1 73
1 77
1 78
1 79
1 80
1 82
1 84
1 85
1 87
1 88
1 89
1 90
1 91
1 92
1 93
1 94
1 95
1 96
1 97
1 98
1 99
1 100
1 101
1 102
1 103
1 104
1 105
1 106
1 107
1 108
1 109
1 110
1 111
1 112
1 113
1 114
1 115
1 116
1 117
1 118
1 119
1 120
1 121
1 122
1 123
1 124
1 125
1 126
1 127
1 128
1 129
1 130
1 131
1 132
1 133
1 134
1 135
1 136
1 137
1 138
1 139
1 140
1 141
1 142
1 143
1 144
1 145
1 146
1 147
1 148
1 149
1 150
1 151
1 152
1 153
1 154
1 155
1 156
1 157
1 158
1 159
1 160
1 161
1 162
1 163
1 164
1 165
1 166
1 167
1 168
1 169
1 170
1 171
2 4
3 4
6 7
7 8
12 13
14 15
14 17
16 17
20 21
23 24
27 28
27 29
32 33
36 37
39 40
40 42
41 42
44 45
47 48
49 51
50 51
53 55
53 59
54 55
56 57
57 58
58 59
60 61
64 65
66 67
68 69
71 72
73 74
73 76
75 76
80 81
82 83
85 86
